48
Lattice="7.6805938572482795 3.8402969286241393 0.0 0.0 7.6805938572482795 0.0 0.0 0.0 0.0" Properties=species:S:1:pos:R:3:tags:I:1 source_doi=10.1103/PhysRevB.51.14504 reconstruction=c(4x2) model="Five reconstructed layers; any deeper layers ideal; bare bottom" pbc="T T F"
Si       0.98900000       0.00000000      -0.78900000        1
Si       3.15529693       0.00000000      -0.05500000        1
Si       0.67500000       3.84029693      -0.04500000        1
Si       2.83929693       3.84029693      -0.78800000        1
Si       0.10800000       2.04014846      -1.43675000        2
Si       3.72029693       1.80314846      -1.44375000        2
Si       0.10800000       5.64144539      -1.43675000        2
Si       3.72029693       5.87744539      -1.44375000        2
Si       1.91114846       1.92114846      -2.93850000        3
Si       5.75744539       1.94014846      -2.64950000        3
Si       1.91114846       5.76044539      -2.93850000        3
Si       5.75744539       5.74044539      -2.64950000        3
Si       1.92614846       0.00000000      -4.22625000        4
Si       5.75544539       0.00000000      -4.00425000        4
Si       1.90914846       3.84029693      -4.22825000        4
Si       5.75444539       3.84029693      -4.04525000        4
Si      -0.04100000       0.00000000      -5.45400000        5
Si       3.87929693       0.00000000      -5.47100000        5
Si      -0.04500000       3.84029693      -5.46900000        5
Si       3.87729693       3.84029693      -5.45400000        5
Si       0.00000000       1.92014846      -6.78875000        6
Si       3.84029693       1.92014846      -6.78875000        6
Si       0.00000000       5.76044539      -6.78875000        6
Si       3.84029693       5.76044539      -6.78875000        6
Si       1.92014846       1.92014846      -8.14650000        7
Si       5.76044539       1.92014846      -8.14650000        7
Si       1.92014846       5.76044539      -8.14650000        7
Si       5.76044539       5.76044539      -8.14650000        7
Si       1.92014846       0.00000000      -9.50425000        8
Si       5.76044539       0.00000000      -9.50425000        8
Si       1.92014846       3.84029693      -9.50425000        8
Si       5.76044539       3.84029693      -9.50425000        8
Si       0.00000000       0.00000000     -10.86200000        9
Si       3.84029693       0.00000000     -10.86200000        9
Si       0.00000000       3.84029693     -10.86200000        9
Si       3.84029693       3.84029693     -10.86200000        9
Si       0.00000000       1.92014846     -12.21975000       10
Si       3.84029693       1.92014846     -12.21975000       10
Si       0.00000000       5.76044539     -12.21975000       10
Si       3.84029693       5.76044539     -12.21975000       10
Si       1.92014846       1.92014846     -13.57750000       11
Si       5.76044539       1.92014846     -13.57750000       11
Si       1.92014846       5.76044539     -13.57750000       11
Si       5.76044539       5.76044539     -13.57750000       11
Si       1.92014846       0.00000000     -14.93525000       12
Si       5.76044539       0.00000000     -14.93525000       12
Si       1.92014846       3.84029693     -14.93525000       12
Si       5.76044539       3.84029693     -14.93525000       12
