48
Lattice="7.6805938572482795 0.0 0.0 0.0 7.6805938572482795 0.0 0.0 0.0 0.0" Properties=species:S:1:pos:R:3:tags:I:1 source_doi=10.1103/PhysRevB.51.14504 reconstruction=p(2x2) model="Five reconstructed layers; any deeper layers ideal; bare bottom" pbc="T T F"
Si       0.99200000       0.00000000      -0.83200000        1
Si       3.15229693       0.00000000      -0.09400000        1
Si       0.67500000       3.84029693      -0.07600000        1
Si       2.83029693       3.84029693      -0.82900000        1
Si       0.10500000       2.03914846      -1.45875000        2
Si       3.72229693       1.80814846      -1.46675000        2
Si       0.10500000       5.64244539      -1.45875000        2
Si       3.72229693       5.87344539      -1.46675000        2
Si       1.90914846       1.92114846      -2.95250000        3
Si       5.75744539       1.92214846      -2.66550000        3
Si       1.90914846       5.76044539      -2.95250000        3
Si       5.75744539       5.75844539      -2.66550000        3
Si       1.94414846       0.00000000      -4.23325000        4
Si       5.79744539       0.00000000      -4.03625000        4
Si       1.88914846       3.84029693      -4.23725000        4
Si       5.71244539       3.84029693      -4.03925000        4
Si      -0.01200000       0.00000000      -5.47000000        5
Si       3.90629693       0.00000000      -5.46100000        5
Si      -0.07400000       3.84029693      -5.46200000        5
Si       3.84729693       3.84029693      -5.47200000        5
Si       0.00000000       1.92014846      -6.78875000        6
Si       3.84029693       1.92014846      -6.78875000        6
Si       0.00000000       5.76044539      -6.78875000        6
Si       3.84029693       5.76044539      -6.78875000        6
Si       1.92014846       1.92014846      -8.14650000        7
Si       5.76044539       1.92014846      -8.14650000        7
Si       1.92014846       5.76044539      -8.14650000        7
Si       5.76044539       5.76044539      -8.14650000        7
Si       1.92014846       0.00000000      -9.50425000        8
Si       5.76044539       0.00000000      -9.50425000        8
Si       1.92014846       3.84029693      -9.50425000        8
Si       5.76044539       3.84029693      -9.50425000        8
Si       0.00000000       0.00000000     -10.86200000        9
Si       3.84029693       0.00000000     -10.86200000        9
Si       0.00000000       3.84029693     -10.86200000        9
Si       3.84029693       3.84029693     -10.86200000        9
Si       0.00000000       1.92014846     -12.21975000       10
Si       3.84029693       1.92014846     -12.21975000       10
Si       0.00000000       5.76044539     -12.21975000       10
Si       3.84029693       5.76044539     -12.21975000       10
Si       1.92014846       1.92014846     -13.57750000       11
Si       5.76044539       1.92014846     -13.57750000       11
Si       1.92014846       5.76044539     -13.57750000       11
Si       5.76044539       5.76044539     -13.57750000       11
Si       1.92014846       0.00000000     -14.93525000       12
Si       5.76044539       0.00000000     -14.93525000       12
Si       1.92014846       3.84029693     -14.93525000       12
Si       5.76044539       3.84029693     -14.93525000       12
