24
Lattice="7.6805938572482795 0.0 0.0 0.0 3.8402969286241393 0.0 0.0 0.0 0.0" Properties=species:S:1:pos:R:3:tags:I:1 source_doi=10.1103/PhysRevB.51.14504 reconstruction=p(2x1)s model="Five reconstructed layers; any deeper layers ideal; bare bottom" pbc="T T F"
Si       0.80500000       0.00000000      -0.52400000        1
Si       3.03529693       0.00000000      -0.52400000        1
Si       0.07500000       1.92014846      -1.49875000        2
Si       3.76529693       1.92014846      -1.49875000        2
Si       1.92014846       1.92014846      -2.93150000        3
Si       5.76044539       1.92014846      -2.71050000        3
Si       1.92014846       0.00000000      -4.21225000        4
Si       5.76044539       0.00000000      -4.07125000        4
Si      -0.02200000       0.00000000      -5.47100000        5
Si       3.86229693       0.00000000      -5.47100000        5
Si       0.00000000       1.92014846      -6.78875000        6
Si       3.84029693       1.92014846      -6.78875000        6
Si       1.92014846       1.92014846      -8.14650000        7
Si       5.76044539       1.92014846      -8.14650000        7
Si       1.92014846       0.00000000      -9.50425000        8
Si       5.76044539       0.00000000      -9.50425000        8
Si       0.00000000       0.00000000     -10.86200000        9
Si       3.84029693       0.00000000     -10.86200000        9
Si       0.00000000       1.92014846     -12.21975000       10
Si       3.84029693       1.92014846     -12.21975000       10
Si       1.92014846       1.92014846     -13.57750000       11
Si       5.76044539       1.92014846     -13.57750000       11
Si       1.92014846       0.00000000     -14.93525000       12
Si       5.76044539       0.00000000     -14.93525000       12
